;test regex multiple= r'^(\d+)\s[xX\*\\u00d7]\s?(\d+)(\w{2,4})$'
(declare-const X String)
(assert (str.in_re X (re.++ (re.++ (re.++ (str.to_re "m") (re.++ (str.to_re "u") (re.++ (str.to_re "l") (re.++ (str.to_re "t") (re.++ (str.to_re "i") (re.++ (str.to_re "p") (re.++ (str.to_re "l") (re.++ (str.to_re "e") (re.++ (str.to_re "=") (re.++ (str.to_re " ") (re.++ (str.to_re "r") (str.to_re "\u{27}")))))))))))) (re.++ (str.to_re "") (re.++ (re.+ (re.range "0" "9")) (re.++ (re.union (str.to_re " ") (re.union (str.to_re "\u{0b}") (re.union (str.to_re "\u{0a}") (re.union (str.to_re "\u{0d}") (re.union (str.to_re "\u{09}") (str.to_re "\u{0c}")))))) (re.++ (re.union (str.to_re "x") (re.union (str.to_re "X") (re.union (str.to_re "*") (re.union (str.to_re "\\") (re.union (str.to_re "u") (re.union (str.to_re "00") (re.union (str.to_re "d") (str.to_re "7")))))))) (re.++ (re.opt (re.union (str.to_re " ") (re.union (str.to_re "\u{0b}") (re.union (str.to_re "\u{0a}") (re.union (str.to_re "\u{0d}") (re.union (str.to_re "\u{09}") (str.to_re "\u{0c}"))))))) (re.++ (re.+ (re.range "0" "9")) ((_ re.loop 2 4) (re.union (re.range "a" "z") (re.union (re.range "A" "Z") (re.union (re.range "0" "9") (str.to_re "_")))))))))))) (re.++ (str.to_re "") (str.to_re "\u{27}")))))
; sanitize danger characters:  < > ' " &
(assert (not (str.in_re X (re.++ re.all (re.union (str.to_re "\u{3c}") (str.to_re "\u{3e}") (str.to_re "\u{27}") (str.to_re "\u{22}") (str.to_re "\u{26}")) re.all))))
(assert (< 10 (str.len X)))
(check-sat)
(get-model)